25 40
1 2 1
1 6 3
2 3 4
2 7 1
3 4 5
3 8 1
4 5 3
4 9 5
5 10 3
6 7 4
6 11 2
7 8 2
7 12 4
8 9 4
8 13 1
9 10 3
9 14 4
10 15 3
11 12 3
11 16 2
12 13 1
12 17 1
13 14 3
13 18 1
14 15 2
14 19 4
15 20 3
16 17 1
16 21 4
17 18 5
17 22 5
18 19 2
18 23 1
19 20 5
19 24 3
20 25 4
21 22 4
22 23 1
23 24 4
24 25 4
